Reproduction of the Original Problem/Instances/S1-10/S1-15-10-1-s.txt
     100      10    0.15
       3       1       1       2       3       1       3       1       1       1       8       3      10      12      12      16      13      14       5      14       1
       3       3       1       1       1       3       2       3       1       3      14       8      10       6       0       1       9      10      15       7       2
       1       2       3       2       3       2       2       3       2       3      13      11      11       0      16       3       2      12      13       7       2
       2       3       1       3       3       3       2       1       1       3      15       3      16      14       8       4       8      16      12      14       1
       1       1       3       2       2       2       2       3       2       2      11       8       4       4       4       1      12      16       1      15       2
       1       3       3       3       1       1       2       2       2       3      14      12       0       5       9      14       1       0       7       1       2
       2       1       2       2       1       3       3       1       1       1       1       4       2      16       2       5      10       9       7       9       2
       2       1       2       1       2       3       2       1       1       3       8       9       2       1       5      15       1       3      14      11       1
       1       1       3       2       3       2       2       1       1       3       1       6       7       4       6       0       9      14       3       9       2
       2       3       1       2       1       3       2       2       3       1       1      16       5      11      11       4      10      12      16       8       2
       1       2       3       2       2       2       2       2       2       3      13      13      10      14       2       8       3      16       6       2       2
       3       1       2       2       3       1       2       1       3       3       3      15      11       2      11      13       4       6       2      12       1
       3       2       3       1       2       1       1       3       1       1       6       2       2      10      16       8       9      11       9      12       2
       3       1       2       2       3       1       3       3       1       3      11       3       4       3      11      13      14      13      12       4       1
       1       1       2       1       2       3       1       3       3       3      12       5       6       9       7      11      10       4      15       1       2
       3       2       3       3       2       3       2       2       2       2      11       0      13       1       4       3       9      12       8      10       1
       2       2       2       2       1       1       1       1       2       2       2      16      11       3      12       4       2      15       8      15       2
       3       2       1       1       3       1       2       3       2       2      13       3       2       4       2       9       7      16       4       3       1
       1       2       1       2       2       1       2       1       2       3       9      16       3      16       8      12       6       3       4      11       1
       3       2       1       2       1       1       3       3       1       1      11      10       8       2      15      16      12      16      13      16       1
       3       3       1       1       1       3       1       1       1       3      11      16       8       8       3      13       8      16      13      12       1
       3       1       3       2       1       3       2       2       2       2      14       7       7      15       6       5       2       1       8      11       2
       3       2       1       1       1       1       2       1       2       3      13       2       0      10       1       0      15      10      14       2       1
       1       1       3       1       2       3       2       2       2       2      13       0       7       3       2       7       9       0      15      10       2
       3       1       1       1       2       1       3       3       2       3      14      14       2       6       9       8       3       0      15      14       1
       1       3       2       2       2       2       1       1       1       3      14       7       6       9      15       9       1      14       0      13       1
       2       1       2       2       1       2       2       2       1       1       7      11       6      12      11       4       1       3       3       3       1
       1       3       2       1       1       3       1       3       2       2      10       5      15       2       0       3       7      10       8       0       2
       1       2       3       3       1       2       1       2       2       3       9      15       7       1       0      10      16      11      14       0       1
       1       1       1       2       2       2       3       1       2       2      11      11      12       3      16      13       5       5      14      13       2
       2       1       2       1       3       3       3       2       2       3      11       7       3      15       2      11       5      11      13      16       1
       2       3       1       3       3       2       1       2       3       2       6      11       2       4       0      11      12       4       4      10       1
       3       3       2       1       1       1       1       1       1       3      15      10       3       0      12      16       7       5       5       6       1
       3       3       2       2       2       1       2       1       2       1       4      14       9       9      13       0       9       6       6      10       2
       2       1       2       2       3       2       1       3       1       2       5       5      16      14       7       9      15       2       1      15       1
       3       3       2       1       1       2       2       3       1       1      14      10      13       3      16       6      16       2      13      14       2
       1       2       2       2       3       3       2       1       2       1       1       3       7      11       2      14       2       7      13       9       2
       3       3       2       2       1       3       3       2       2       2      15       7      14       5      12       0      11       4       6       4       2
       1       1       1       2       1       1       3       3       2       1       0       0      14       6       7       8       5      14       2      15       1
       2       1       2       3       2       3       1       2       1       3      13      15      16       3       1       7       1       4       0       2       1
       2       1       1       1       1       1       2       3       2       3      13       8      11      13       3      11      16       6       4      12       1
       2       3       1       1       3       3       2       3       3       1      15      11      16       8      15      16      10       0       4       9       2
       3       1       3       3       2       1       3       2       3       3       7       4       4      15       2      14      10      13       4      11       1
       1       1       3       1       1       1       1       3       1       1       2       5      16       2       3       7      11      12      12       8       2
       3       1       3       3       3       3       2       3       2       1       3      16      10      14      11       9       8       6       2      10       2
       3       3       2       2       3       1       3       3       2       1       1       4       1      11       3       7       6      12      16       8       1
       1       3       3       1       3       2       2       3       1       2       0      10       1       8      12      15       9       4       6       9       2
       3       2       3       2       2       2       3       2       1       3      14       3       5       1       4      10      15      12       2       4       2
       1       3       2       3       2       2       3       3       2       1       2       0      16      13       2      10       9      11       1      14       1
       3       1       2       3       3       2       2       2       2       3      13       5       2       3      10      10       7       7      16       7       1
       1       1       2       2       2       1       3       2       3       1       1       9       5      14       2       8       0       1      14       7       2
       3       1       3       3       2       2       3       2       2       1       9      14       8      13      10       2       3       3      10      10       2
       2       2       2       2       3       1       3       3       1       2       5       8       0      11       8      15      12      11       8       2       2
       1       3       2       1       3       3       3       3       3       2       4      16       2       0       2      11       2       4      10       8       2
       2       3       3       2       3       3       1       1       3       2       1       6      10      11       5      12       3       7       6      12       1
       1       1       2       2       2       3       2       3       3       2      11      14       4      12      16      13       7      11      11       1       2
       2       3       1       1       2       1       2       1       2       3      16      13       8       4       0      15       3       0       4      13       1
       1       1       3       3       1       1       1       2       3       2      14       0      16      16       9       2      13      15      13      14       2
       3       1       1       3       1       2       1       3       3       2      11       7      16       5       7       1       7      15      14       3       2
       3       3       3       1       2       1       1       2       1       1       4      16       7       8       7       5       5       0      10       0       1
       3       2       2       3       1       1       2       3       1       1       2       6       2      16       2       3      14      15       1       2       1
       1       1       1       2       3       2       2       1       1       2       6      10       0       6      11       3       5       2       2      15       2
       2       3       3       1       1       2       3       2       2       2       6      12       3      12       1       7      10      11       3      12       2
       1       3       1       2       2       2       2       3       3       3       0       0      11       6      15      13       2      11       6       8       2
       3       3       2       2       1       1       1       3       2       2       4       2      12       7       3       3       1       2       5       8       1
       1       2       2       1       1       3       2       1       2       3      12       0      15       8       2      16       4       6      15       9       2
       2       2       1       1       3       2       1       3       1       1      15      13       0      16      10       0       8       6      10       2       1
       1       3       3       1       1       3       2       2       3       1      14      15       4      15       7      12      14       9      14       3       2
       1       2       2       1       3       2       2       3       2       3       7       5       3      11       7      14       6       3       7       8       2
       1       1       3       2       2       2       2       3       1       2      16      13       7       5       3      12       5       0       0       5       1
       2       3       2       1       2       1       1       3       1       3       6       7       0      13       7       6      10      15      11      16       2
       2       2       2       1       2       2       2       3       3       3       4       3      12       0      13       7      10       2       4      11       2
       3       3       3       1       2       1       3       2       2       2       9      14      10       1       3       2       8       0       7      10       2
       2       3       1       1       3       1       2       1       3       3       1      11       3       4       2       2      10      10       6       8       1
       3       3       3       1       3       1       1       2       3       1       7       1       2      13      14       4       2      11       3       2       2
       1       1       2       2       1       1       3       2       1       1       7       5       6      13       3      16      14       7      10       5       2
       3       3       1       3       1       3       2       3       3       2      12       2       7      16       9       5      12       2       5       1       1
       1       2       2       1       2       2       2       1       1       1       7       1       0       3       6      12       2      14      14       8       2
       2       3       3       2       1       3       1       3       3       1       0      10      12       2      12      16       7       8       5      14       2
       3       2       3       3       1       3       3       2       3       3       0      13       8       8      10       2       4      11       9       0       2
       2       3       2       1       3       1       3       1       3       1      12       5       6       8       4       3       2       9      12       5       1
       3       1       2       2       2       3       3       2       1       1       8       8      12       4       0       5      15       6      11       2       1
       3       2       1       2       2       3       2       2       2       1      15      10      16       4       4       6       0       9       9       7       2
       2       3       1       3       1       3       2       3       3       3      11      12      12       8       4       5      12       9       2       3       1
       3       2       3       1       2       1       3       2       2       3      16      12       0      10       4       9      16       2       1       0       1
       3       2       3       2       3       3       2       3       2       2      15       6       4      11       8       7       1      15      10      14       2
       3       3       1       2       2       2       1       1       3       3      14       5       5      10       4       2       8       4      14      15       2
       3       3       1       1       3       1       3       2       2       3       1      16       6      15       7      12       0       0      10       5       2
       3       2       3       3       1       1       1       3       2       2       5      10      12       4       8      13       8      16      11      15       1
       1       2       3       3       2       3       1       3       1       3       3      15       5       8      15      13      14      16      11      10       2
       2       1       3       3       1       1       2       3       3       2       4       0      15       0       4       2      10       0       6       0       2
       3       3       2       1       2       3       2       2       1       1       1       7       1       3       7       5      10       8       7      10       2
       1       1       1       1       3       1       1       1       2       3       5       6       8      14       5       9       8      12       6      12       2
       2       1       1       2       2       3       2       2       3       2       1      14       3       8      11      12      13       4      16       0       2
       1       3       3       2       3       3       1       2       2       3       9       9       7      12       3       7      12      10       0       2       2
       1       3       3       1       2       2       1       2       3       1      12       9       1      15       5      12      15       7       0      13       2
       3       1       2       2       3       2       3       3       3       2       8       6       6      16      11       5      16       5      11      14       2
       2       3       1       2       1       3       2       2       3       2       9       3      10      16       5      16       1       9       5      11       2
       2       1       3       3       3       2       1       2       3       2      13      15      11       6      13       3       5       8      16      10       1
       3       2       1       3       2       1       3       3       1       1       3       5       4       1      16      10       8       4      14       6       1
      18      18      23      26      15      20      24      24      22      26
      37      36      46      48      29      39      47      52      43      53
      77      56      83      89      47      74      92      82      93     130